<number of tasks>
20

<cycle time>
1000

<order strength>
0,226


<task times>
1 76
2 132
3 28
4 77
5 225
6 110
7 110
8 217
9 215
10 118
11 177
12 22
13 143
14 104
15 217
16 85
17 178
18 379
19 194
20 155

<precedence relations>
1,4
2,5
2,7
3,6
4,9
5,10
6,8
6,11
6,12
6,13
7,14
8,15
9,17
10,17
11,16
13,18
15,19
16,19
18,20

<end>
